p cnf 256 1020
c p weight 106 0 0
c p weight -106 1 0
c p weight 107 1.0 0
c p weight -107 1 0
102 -101 99 0
102 -101 100 0
-102 101 99 0
-102 101 100 0
102 101 -99 -100 0
-102 -101 -99 -100 0
103 99 -100 0
103 -99 100 0
-103 99 100 0
-103 -99 -100 0
104 105 -102 0
104 -102 103 0
-104 105 102 0
-104 102 103 0
104 -102 -99 0
-104 102 -99 0
104 -105 102 99 -103 0
-104 -105 -102 99 -103 0
105 -99 103 0
-105 99 103 0
-106 103 0
105 -106 -99 0
-105 -106 99 0
105 106 99 -103 0
-105 106 -99 -103 0
-107 103 0
105 -107 99 0
-105 -107 -99 0
105 107 -99 -103 0
-105 107 99 -103 0
108 -104 105 0
108 -104 103 0
-108 104 105 0
-108 104 103 0
108 104 -105 -103 0
-108 -104 -105 -103 0
109 105 -103 0
109 -105 103 0
-109 105 103 0
-109 -105 -103 0
110 -108 105 0
110 -108 98 0
-110 108 105 0
-110 108 98 0
110 -108 97 -109 0
110 -108 -97 109 0
-110 108 97 -109 0
-110 108 -97 109 0
110 108 -105 97 109 -98 0
110 108 -105 -97 -109 -98 0
-110 -108 -105 97 109 -98 0
-110 -108 -105 -97 -109 -98 0
112 105 -97 0
112 -105 97 0
-112 105 97 0
-112 -105 -97 0
111 109 -98 0
111 -109 98 0
-111 109 98 0
-111 -109 -98 0
113 -110 112 0
113 -110 96 0
-113 110 112 0
-113 110 96 0
113 -110 95 -98 0
113 -110 -95 98 0
-113 110 95 -98 0
-113 110 -95 98 0
113 110 -112 95 98 -96 0
113 110 -112 -95 -98 -96 0
-113 -110 -112 95 98 -96 0
-113 -110 -112 -95 -98 -96 0
115 112 -95 0
115 -112 95 0
-115 112 95 0
-115 -112 -95 0
114 98 -96 0
114 -98 96 0
-114 98 96 0
-114 -98 -96 0
116 -113 115 0
116 -113 94 0
-116 113 115 0
-116 113 94 0
116 -113 93 -96 0
116 -113 -93 96 0
-116 113 93 -96 0
-116 113 -93 96 0
116 113 -115 93 96 -94 0
116 113 -115 -93 -96 -94 0
-116 -113 -115 93 96 -94 0
-116 -113 -115 -93 -96 -94 0
118 115 -93 0
118 -115 93 0
-118 115 93 0
-118 -115 -93 0
117 96 -94 0
117 -96 94 0
-117 96 94 0
-117 -96 -94 0
119 -116 118 0
119 -116 92 0
-119 116 118 0
-119 116 92 0
119 -116 91 -94 0
119 -116 -91 94 0
-119 116 91 -94 0
-119 116 -91 94 0
119 116 -118 91 94 -92 0
119 116 -118 -91 -94 -92 0
-119 -116 -118 91 94 -92 0
-119 -116 -118 -91 -94 -92 0
121 118 -91 0
121 -118 91 0
-121 118 91 0
-121 -118 -91 0
120 94 -92 0
120 -94 92 0
-120 94 92 0
-120 -94 -92 0
122 -119 121 0
122 -119 90 0
-122 119 121 0
-122 119 90 0
122 -119 89 -92 0
122 -119 -89 92 0
-122 119 89 -92 0
-122 119 -89 92 0
122 119 -121 89 92 -90 0
122 119 -121 -89 -92 -90 0
-122 -119 -121 89 92 -90 0
-122 -119 -121 -89 -92 -90 0
124 121 -89 0
124 -121 89 0
-124 121 89 0
-124 -121 -89 0
123 92 -90 0
123 -92 90 0
-123 92 90 0
-123 -92 -90 0
125 -122 124 0
125 -122 88 0
-125 122 124 0
-125 122 88 0
125 -122 87 -90 0
125 -122 -87 90 0
-125 122 87 -90 0
-125 122 -87 90 0
125 122 -124 87 90 -88 0
125 122 -124 -87 -90 -88 0
-125 -122 -124 87 90 -88 0
-125 -122 -124 -87 -90 -88 0
127 124 -87 0
127 -124 87 0
-127 124 87 0
-127 -124 -87 0
126 90 -88 0
126 -90 88 0
-126 90 88 0
-126 -90 -88 0
128 -125 127 0
128 -125 86 0
-128 125 127 0
-128 125 86 0
128 -125 85 -88 0
128 -125 -85 88 0
-128 125 85 -88 0
-128 125 -85 88 0
128 125 -127 85 88 -86 0
128 125 -127 -85 -88 -86 0
-128 -125 -127 85 88 -86 0
-128 -125 -127 -85 -88 -86 0
130 127 -85 0
130 -127 85 0
-130 127 85 0
-130 -127 -85 0
129 88 -86 0
129 -88 86 0
-129 88 86 0
-129 -88 -86 0
131 -128 130 0
131 -128 84 0
-131 128 130 0
-131 128 84 0
131 -128 83 -86 0
131 -128 -83 86 0
-131 128 83 -86 0
-131 128 -83 86 0
131 128 -130 83 86 -84 0
131 128 -130 -83 -86 -84 0
-131 -128 -130 83 86 -84 0
-131 -128 -130 -83 -86 -84 0
133 130 -83 0
133 -130 83 0
-133 130 83 0
-133 -130 -83 0
132 86 -84 0
132 -86 84 0
-132 86 84 0
-132 -86 -84 0
134 -131 133 0
134 -131 82 0
-134 131 133 0
-134 131 82 0
134 -131 81 -84 0
134 -131 -81 84 0
-134 131 81 -84 0
-134 131 -81 84 0
134 131 -133 81 84 -82 0
134 131 -133 -81 -84 -82 0
-134 -131 -133 81 84 -82 0
-134 -131 -133 -81 -84 -82 0
136 133 -81 0
136 -133 81 0
-136 133 81 0
-136 -133 -81 0
135 84 -82 0
135 -84 82 0
-135 84 82 0
-135 -84 -82 0
137 -134 136 0
137 -134 80 0
-137 134 136 0
-137 134 80 0
137 -134 79 -82 0
137 -134 -79 82 0
-137 134 79 -82 0
-137 134 -79 82 0
137 134 -136 79 82 -80 0
137 134 -136 -79 -82 -80 0
-137 -134 -136 79 82 -80 0
-137 -134 -136 -79 -82 -80 0
139 136 -79 0
139 -136 79 0
-139 136 79 0
-139 -136 -79 0
138 82 -80 0
138 -82 80 0
-138 82 80 0
-138 -82 -80 0
140 -137 139 0
140 -137 78 0
-140 137 139 0
-140 137 78 0
140 -137 77 -80 0
140 -137 -77 80 0
-140 137 77 -80 0
-140 137 -77 80 0
140 137 -139 77 80 -78 0
140 137 -139 -77 -80 -78 0
-140 -137 -139 77 80 -78 0
-140 -137 -139 -77 -80 -78 0
142 139 -77 0
142 -139 77 0
-142 139 77 0
-142 -139 -77 0
141 80 -78 0
141 -80 78 0
-141 80 78 0
-141 -80 -78 0
143 -140 142 0
143 -140 76 0
-143 140 142 0
-143 140 76 0
143 -140 75 -78 0
143 -140 -75 78 0
-143 140 75 -78 0
-143 140 -75 78 0
143 140 -142 75 78 -76 0
143 140 -142 -75 -78 -76 0
-143 -140 -142 75 78 -76 0
-143 -140 -142 -75 -78 -76 0
145 142 -75 0
145 -142 75 0
-145 142 75 0
-145 -142 -75 0
144 78 -76 0
144 -78 76 0
-144 78 76 0
-144 -78 -76 0
146 -143 145 0
146 -143 74 0
-146 143 145 0
-146 143 74 0
146 -143 73 -76 0
146 -143 -73 76 0
-146 143 73 -76 0
-146 143 -73 76 0
146 143 -145 73 76 -74 0
146 143 -145 -73 -76 -74 0
-146 -143 -145 73 76 -74 0
-146 -143 -145 -73 -76 -74 0
148 145 -73 0
148 -145 73 0
-148 145 73 0
-148 -145 -73 0
147 76 -74 0
147 -76 74 0
-147 76 74 0
-147 -76 -74 0
149 -146 148 0
149 -146 72 0
-149 146 148 0
-149 146 72 0
149 -146 71 -74 0
149 -146 -71 74 0
-149 146 71 -74 0
-149 146 -71 74 0
149 146 -148 71 74 -72 0
149 146 -148 -71 -74 -72 0
-149 -146 -148 71 74 -72 0
-149 -146 -148 -71 -74 -72 0
151 148 -71 0
151 -148 71 0
-151 148 71 0
-151 -148 -71 0
150 74 -72 0
150 -74 72 0
-150 74 72 0
-150 -74 -72 0
152 -149 151 0
152 -149 70 0
-152 149 151 0
-152 149 70 0
152 -149 69 -72 0
152 -149 -69 72 0
-152 149 69 -72 0
-152 149 -69 72 0
152 149 -151 69 72 -70 0
152 149 -151 -69 -72 -70 0
-152 -149 -151 69 72 -70 0
-152 -149 -151 -69 -72 -70 0
154 151 -69 0
154 -151 69 0
-154 151 69 0
-154 -151 -69 0
153 72 -70 0
153 -72 70 0
-153 72 70 0
-153 -72 -70 0
155 -152 154 0
155 -152 68 0
-155 152 154 0
-155 152 68 0
155 -152 67 -70 0
155 -152 -67 70 0
-155 152 67 -70 0
-155 152 -67 70 0
155 152 -154 67 70 -68 0
155 152 -154 -67 -70 -68 0
-155 -152 -154 67 70 -68 0
-155 -152 -154 -67 -70 -68 0
157 154 -67 0
157 -154 67 0
-157 154 67 0
-157 -154 -67 0
156 70 -68 0
156 -70 68 0
-156 70 68 0
-156 -70 -68 0
158 -155 157 0
158 -155 66 0
-158 155 157 0
-158 155 66 0
158 -155 65 -68 0
158 -155 -65 68 0
-158 155 65 -68 0
-158 155 -65 68 0
158 155 -157 65 68 -66 0
158 155 -157 -65 -68 -66 0
-158 -155 -157 65 68 -66 0
-158 -155 -157 -65 -68 -66 0
160 157 -65 0
160 -157 65 0
-160 157 65 0
-160 -157 -65 0
159 68 -66 0
159 -68 66 0
-159 68 66 0
-159 -68 -66 0
161 -158 160 0
161 -158 64 0
-161 158 160 0
-161 158 64 0
161 -158 63 -66 0
161 -158 -63 66 0
-161 158 63 -66 0
-161 158 -63 66 0
161 158 -160 63 66 -64 0
161 158 -160 -63 -66 -64 0
-161 -158 -160 63 66 -64 0
-161 -158 -160 -63 -66 -64 0
163 160 -63 0
163 -160 63 0
-163 160 63 0
-163 -160 -63 0
162 66 -64 0
162 -66 64 0
-162 66 64 0
-162 -66 -64 0
164 -161 163 0
164 -161 62 0
-164 161 163 0
-164 161 62 0
164 -161 61 -64 0
164 -161 -61 64 0
-164 161 61 -64 0
-164 161 -61 64 0
164 161 -163 61 64 -62 0
164 161 -163 -61 -64 -62 0
-164 -161 -163 61 64 -62 0
-164 -161 -163 -61 -64 -62 0
166 163 -61 0
166 -163 61 0
-166 163 61 0
-166 -163 -61 0
165 64 -62 0
165 -64 62 0
-165 64 62 0
-165 -64 -62 0
167 -164 166 0
167 -164 60 0
-167 164 166 0
-167 164 60 0
167 -164 59 -62 0
167 -164 -59 62 0
-167 164 59 -62 0
-167 164 -59 62 0
167 164 -166 59 62 -60 0
167 164 -166 -59 -62 -60 0
-167 -164 -166 59 62 -60 0
-167 -164 -166 -59 -62 -60 0
169 166 -59 0
169 -166 59 0
-169 166 59 0
-169 -166 -59 0
168 62 -60 0
168 -62 60 0
-168 62 60 0
-168 -62 -60 0
170 -167 169 0
170 -167 58 0
-170 167 169 0
-170 167 58 0
170 -167 57 -60 0
170 -167 -57 60 0
-170 167 57 -60 0
-170 167 -57 60 0
170 167 -169 57 60 -58 0
170 167 -169 -57 -60 -58 0
-170 -167 -169 57 60 -58 0
-170 -167 -169 -57 -60 -58 0
172 169 -57 0
172 -169 57 0
-172 169 57 0
-172 -169 -57 0
171 60 -58 0
171 -60 58 0
-171 60 58 0
-171 -60 -58 0
173 -170 172 0
173 -170 56 0
-173 170 172 0
-173 170 56 0
173 -170 55 -58 0
173 -170 -55 58 0
-173 170 55 -58 0
-173 170 -55 58 0
173 170 -172 55 58 -56 0
173 170 -172 -55 -58 -56 0
-173 -170 -172 55 58 -56 0
-173 -170 -172 -55 -58 -56 0
175 172 -55 0
175 -172 55 0
-175 172 55 0
-175 -172 -55 0
174 58 -56 0
174 -58 56 0
-174 58 56 0
-174 -58 -56 0
176 -173 175 0
176 -173 54 0
-176 173 175 0
-176 173 54 0
176 -173 53 -56 0
176 -173 -53 56 0
-176 173 53 -56 0
-176 173 -53 56 0
176 173 -175 53 56 -54 0
176 173 -175 -53 -56 -54 0
-176 -173 -175 53 56 -54 0
-176 -173 -175 -53 -56 -54 0
178 175 -53 0
178 -175 53 0
-178 175 53 0
-178 -175 -53 0
177 56 -54 0
177 -56 54 0
-177 56 54 0
-177 -56 -54 0
179 -176 178 0
179 -176 52 0
-179 176 178 0
-179 176 52 0
179 -176 51 -54 0
179 -176 -51 54 0
-179 176 51 -54 0
-179 176 -51 54 0
179 176 -178 51 54 -52 0
179 176 -178 -51 -54 -52 0
-179 -176 -178 51 54 -52 0
-179 -176 -178 -51 -54 -52 0
181 178 -51 0
181 -178 51 0
-181 178 51 0
-181 -178 -51 0
180 54 -52 0
180 -54 52 0
-180 54 52 0
-180 -54 -52 0
182 -179 181 0
182 -179 50 0
-182 179 181 0
-182 179 50 0
182 -179 49 -52 0
182 -179 -49 52 0
-182 179 49 -52 0
-182 179 -49 52 0
182 179 -181 49 52 -50 0
182 179 -181 -49 -52 -50 0
-182 -179 -181 49 52 -50 0
-182 -179 -181 -49 -52 -50 0
184 181 -49 0
184 -181 49 0
-184 181 49 0
-184 -181 -49 0
183 52 -50 0
183 -52 50 0
-183 52 50 0
-183 -52 -50 0
185 -182 184 0
185 -182 48 0
-185 182 184 0
-185 182 48 0
185 -182 47 -50 0
185 -182 -47 50 0
-185 182 47 -50 0
-185 182 -47 50 0
185 182 -184 47 50 -48 0
185 182 -184 -47 -50 -48 0
-185 -182 -184 47 50 -48 0
-185 -182 -184 -47 -50 -48 0
187 184 -47 0
187 -184 47 0
-187 184 47 0
-187 -184 -47 0
186 50 -48 0
186 -50 48 0
-186 50 48 0
-186 -50 -48 0
188 -185 187 0
188 -185 46 0
-188 185 187 0
-188 185 46 0
188 -185 45 -48 0
188 -185 -45 48 0
-188 185 45 -48 0
-188 185 -45 48 0
188 185 -187 45 48 -46 0
188 185 -187 -45 -48 -46 0
-188 -185 -187 45 48 -46 0
-188 -185 -187 -45 -48 -46 0
190 187 -45 0
190 -187 45 0
-190 187 45 0
-190 -187 -45 0
189 48 -46 0
189 -48 46 0
-189 48 46 0
-189 -48 -46 0
191 -188 190 0
191 -188 44 0
-191 188 190 0
-191 188 44 0
191 -188 43 -46 0
191 -188 -43 46 0
-191 188 43 -46 0
-191 188 -43 46 0
191 188 -190 43 46 -44 0
191 188 -190 -43 -46 -44 0
-191 -188 -190 43 46 -44 0
-191 -188 -190 -43 -46 -44 0
193 190 -43 0
193 -190 43 0
-193 190 43 0
-193 -190 -43 0
192 46 -44 0
192 -46 44 0
-192 46 44 0
-192 -46 -44 0
194 -191 193 0
194 -191 42 0
-194 191 193 0
-194 191 42 0
194 -191 41 -44 0
194 -191 -41 44 0
-194 191 41 -44 0
-194 191 -41 44 0
194 191 -193 41 44 -42 0
194 191 -193 -41 -44 -42 0
-194 -191 -193 41 44 -42 0
-194 -191 -193 -41 -44 -42 0
196 193 -41 0
196 -193 41 0
-196 193 41 0
-196 -193 -41 0
195 44 -42 0
195 -44 42 0
-195 44 42 0
-195 -44 -42 0
197 -194 196 0
197 -194 40 0
-197 194 196 0
-197 194 40 0
197 -194 39 -42 0
197 -194 -39 42 0
-197 194 39 -42 0
-197 194 -39 42 0
197 194 -196 39 42 -40 0
197 194 -196 -39 -42 -40 0
-197 -194 -196 39 42 -40 0
-197 -194 -196 -39 -42 -40 0
199 196 -39 0
199 -196 39 0
-199 196 39 0
-199 -196 -39 0
198 42 -40 0
198 -42 40 0
-198 42 40 0
-198 -42 -40 0
200 -197 199 0
200 -197 38 0
-200 197 199 0
-200 197 38 0
200 -197 37 -40 0
200 -197 -37 40 0
-200 197 37 -40 0
-200 197 -37 40 0
200 197 -199 37 40 -38 0
200 197 -199 -37 -40 -38 0
-200 -197 -199 37 40 -38 0
-200 -197 -199 -37 -40 -38 0
202 199 -37 0
202 -199 37 0
-202 199 37 0
-202 -199 -37 0
201 40 -38 0
201 -40 38 0
-201 40 38 0
-201 -40 -38 0
203 -200 202 0
203 -200 36 0
-203 200 202 0
-203 200 36 0
203 -200 35 -38 0
203 -200 -35 38 0
-203 200 35 -38 0
-203 200 -35 38 0
203 200 -202 35 38 -36 0
203 200 -202 -35 -38 -36 0
-203 -200 -202 35 38 -36 0
-203 -200 -202 -35 -38 -36 0
205 202 -35 0
205 -202 35 0
-205 202 35 0
-205 -202 -35 0
204 38 -36 0
204 -38 36 0
-204 38 36 0
-204 -38 -36 0
206 -203 205 0
206 -203 34 0
-206 203 205 0
-206 203 34 0
206 -203 33 -36 0
206 -203 -33 36 0
-206 203 33 -36 0
-206 203 -33 36 0
206 203 -205 33 36 -34 0
206 203 -205 -33 -36 -34 0
-206 -203 -205 33 36 -34 0
-206 -203 -205 -33 -36 -34 0
208 205 -33 0
208 -205 33 0
-208 205 33 0
-208 -205 -33 0
207 36 -34 0
207 -36 34 0
-207 36 34 0
-207 -36 -34 0
209 -206 208 0
209 -206 32 0
-209 206 208 0
-209 206 32 0
209 -206 31 -34 0
209 -206 -31 34 0
-209 206 31 -34 0
-209 206 -31 34 0
209 206 -208 31 34 -32 0
209 206 -208 -31 -34 -32 0
-209 -206 -208 31 34 -32 0
-209 -206 -208 -31 -34 -32 0
211 208 -31 0
211 -208 31 0
-211 208 31 0
-211 -208 -31 0
210 34 -32 0
210 -34 32 0
-210 34 32 0
-210 -34 -32 0
212 -209 211 0
212 -209 30 0
-212 209 211 0
-212 209 30 0
212 -209 29 -32 0
212 -209 -29 32 0
-212 209 29 -32 0
-212 209 -29 32 0
212 209 -211 29 32 -30 0
212 209 -211 -29 -32 -30 0
-212 -209 -211 29 32 -30 0
-212 -209 -211 -29 -32 -30 0
214 211 -29 0
214 -211 29 0
-214 211 29 0
-214 -211 -29 0
213 32 -30 0
213 -32 30 0
-213 32 30 0
-213 -32 -30 0
215 -212 214 0
215 -212 28 0
-215 212 214 0
-215 212 28 0
215 -212 27 -30 0
215 -212 -27 30 0
-215 212 27 -30 0
-215 212 -27 30 0
215 212 -214 27 30 -28 0
215 212 -214 -27 -30 -28 0
-215 -212 -214 27 30 -28 0
-215 -212 -214 -27 -30 -28 0
217 214 -27 0
217 -214 27 0
-217 214 27 0
-217 -214 -27 0
216 30 -28 0
216 -30 28 0
-216 30 28 0
-216 -30 -28 0
218 -215 217 0
218 -215 26 0
-218 215 217 0
-218 215 26 0
218 -215 25 -28 0
218 -215 -25 28 0
-218 215 25 -28 0
-218 215 -25 28 0
218 215 -217 25 28 -26 0
218 215 -217 -25 -28 -26 0
-218 -215 -217 25 28 -26 0
-218 -215 -217 -25 -28 -26 0
220 217 -25 0
220 -217 25 0
-220 217 25 0
-220 -217 -25 0
219 28 -26 0
219 -28 26 0
-219 28 26 0
-219 -28 -26 0
221 -218 220 0
221 -218 24 0
-221 218 220 0
-221 218 24 0
221 -218 23 -26 0
221 -218 -23 26 0
-221 218 23 -26 0
-221 218 -23 26 0
221 218 -220 23 26 -24 0
221 218 -220 -23 -26 -24 0
-221 -218 -220 23 26 -24 0
-221 -218 -220 -23 -26 -24 0
223 220 -23 0
223 -220 23 0
-223 220 23 0
-223 -220 -23 0
222 26 -24 0
222 -26 24 0
-222 26 24 0
-222 -26 -24 0
224 -221 223 0
224 -221 22 0
-224 221 223 0
-224 221 22 0
224 -221 21 -24 0
224 -221 -21 24 0
-224 221 21 -24 0
-224 221 -21 24 0
224 221 -223 21 24 -22 0
224 221 -223 -21 -24 -22 0
-224 -221 -223 21 24 -22 0
-224 -221 -223 -21 -24 -22 0
226 223 -21 0
226 -223 21 0
-226 223 21 0
-226 -223 -21 0
225 24 -22 0
225 -24 22 0
-225 24 22 0
-225 -24 -22 0
227 -224 226 0
227 -224 20 0
-227 224 226 0
-227 224 20 0
227 -224 19 -22 0
227 -224 -19 22 0
-227 224 19 -22 0
-227 224 -19 22 0
227 224 -226 19 22 -20 0
227 224 -226 -19 -22 -20 0
-227 -224 -226 19 22 -20 0
-227 -224 -226 -19 -22 -20 0
229 226 -19 0
229 -226 19 0
-229 226 19 0
-229 -226 -19 0
228 22 -20 0
228 -22 20 0
-228 22 20 0
-228 -22 -20 0
230 -227 229 0
230 -227 18 0
-230 227 229 0
-230 227 18 0
230 -227 17 -20 0
230 -227 -17 20 0
-230 227 17 -20 0
-230 227 -17 20 0
230 227 -229 17 20 -18 0
230 227 -229 -17 -20 -18 0
-230 -227 -229 17 20 -18 0
-230 -227 -229 -17 -20 -18 0
232 229 -17 0
232 -229 17 0
-232 229 17 0
-232 -229 -17 0
231 20 -18 0
231 -20 18 0
-231 20 18 0
-231 -20 -18 0
233 -230 232 0
233 -230 16 0
-233 230 232 0
-233 230 16 0
233 -230 15 -18 0
233 -230 -15 18 0
-233 230 15 -18 0
-233 230 -15 18 0
233 230 -232 15 18 -16 0
233 230 -232 -15 -18 -16 0
-233 -230 -232 15 18 -16 0
-233 -230 -232 -15 -18 -16 0
235 232 -15 0
235 -232 15 0
-235 232 15 0
-235 -232 -15 0
234 18 -16 0
234 -18 16 0
-234 18 16 0
-234 -18 -16 0
236 -233 235 0
236 -233 14 0
-236 233 235 0
-236 233 14 0
236 -233 13 -16 0
236 -233 -13 16 0
-236 233 13 -16 0
-236 233 -13 16 0
236 233 -235 13 16 -14 0
236 233 -235 -13 -16 -14 0
-236 -233 -235 13 16 -14 0
-236 -233 -235 -13 -16 -14 0
238 235 -13 0
238 -235 13 0
-238 235 13 0
-238 -235 -13 0
237 16 -14 0
237 -16 14 0
-237 16 14 0
-237 -16 -14 0
239 -236 238 0
239 -236 12 0
-239 236 238 0
-239 236 12 0
239 -236 11 -14 0
239 -236 -11 14 0
-239 236 11 -14 0
-239 236 -11 14 0
239 236 -238 11 14 -12 0
239 236 -238 -11 -14 -12 0
-239 -236 -238 11 14 -12 0
-239 -236 -238 -11 -14 -12 0
241 238 -11 0
241 -238 11 0
-241 238 11 0
-241 -238 -11 0
240 14 -12 0
240 -14 12 0
-240 14 12 0
-240 -14 -12 0
242 -239 241 0
242 -239 10 0
-242 239 241 0
-242 239 10 0
242 -239 9 -12 0
242 -239 -9 12 0
-242 239 9 -12 0
-242 239 -9 12 0
242 239 -241 9 12 -10 0
242 239 -241 -9 -12 -10 0
-242 -239 -241 9 12 -10 0
-242 -239 -241 -9 -12 -10 0
244 241 -9 0
244 -241 9 0
-244 241 9 0
-244 -241 -9 0
243 12 -10 0
243 -12 10 0
-243 12 10 0
-243 -12 -10 0
245 -242 244 0
245 -242 8 0
-245 242 244 0
-245 242 8 0
245 -242 7 -10 0
245 -242 -7 10 0
-245 242 7 -10 0
-245 242 -7 10 0
245 242 -244 7 10 -8 0
245 242 -244 -7 -10 -8 0
-245 -242 -244 7 10 -8 0
-245 -242 -244 -7 -10 -8 0
247 244 -7 0
247 -244 7 0
-247 244 7 0
-247 -244 -7 0
246 10 -8 0
246 -10 8 0
-246 10 8 0
-246 -10 -8 0
248 -245 247 0
248 -245 6 0
-248 245 247 0
-248 245 6 0
248 -245 5 -8 0
248 -245 -5 8 0
-248 245 5 -8 0
-248 245 -5 8 0
248 245 -247 5 8 -6 0
248 245 -247 -5 -8 -6 0
-248 -245 -247 5 8 -6 0
-248 -245 -247 -5 -8 -6 0
250 247 -5 0
250 -247 5 0
-250 247 5 0
-250 -247 -5 0
249 8 -6 0
249 -8 6 0
-249 8 6 0
-249 -8 -6 0
251 -248 250 0
251 -248 4 0
-251 248 250 0
-251 248 4 0
251 -248 3 -6 0
251 -248 -3 6 0
-251 248 3 -6 0
-251 248 -3 6 0
251 248 -250 3 6 -4 0
251 248 -250 -3 -6 -4 0
-251 -248 -250 3 6 -4 0
-251 -248 -250 -3 -6 -4 0
253 250 -3 0
253 -250 3 0
-253 250 3 0
-253 -250 -3 0
252 6 -4 0
252 -6 4 0
-252 6 4 0
-252 -6 -4 0
254 -251 253 0
254 -251 2 0
-254 251 253 0
-254 251 2 0
254 -251 1 -4 0
254 -251 -1 4 0
-254 251 1 -4 0
-254 251 -1 4 0
254 251 -253 1 4 -2 0
254 251 -253 -1 -4 -2 0
-254 -251 -253 1 4 -2 0
-254 -251 -253 -1 -4 -2 0
256 253 -1 0
256 -253 1 0
-256 253 1 0
-256 -253 -1 0
255 4 -2 0
255 -4 2 0
-255 4 2 0
-255 -4 -2 0
